============================[ Problem Statistics ]=============================|                                                                             ||  Number of variables:          4242                                         ||  Number of clauses:           10059                                         ||  Parse time:                   0.45 s                                       ||                                                                             |============================[ Search Statistics ]==============================| Conflicts |          ORIGINAL         |          LEARNT          | Progress ||           |    Vars  Clauses Literals |    Limit  Clauses Lit/Cl |          |===============================================================================|       100 |    1591     6264   713425 |     2296      100     53 | 62.501 % ||       250 |    1591     6264   713425 |     2526      250     75 | 62.495 % |===============================================================================restarts              : 3conflicts             : 254            (376 /sec)decisions             : 521            (0.00 % random) (771 /sec)propagations          : 11762          (17399 /sec)conflict literals     : 19258          (94.89 % deleted)CPU time              : 0.676 sSATISFIABLE